Version identifier: 20.1.0.0 | 2020-11-10 | 9bedb6d68
CPXPARAM_Threads                                 1
CPXPARAM_TimeLimit                               7200
CPXPARAM_MIP_Tolerances_MIPGap                   0
Generic callback                                 0x60
1 of 1 MIP starts provided solutions.
MIP start 'm1' defined initial solution with objective 4413.8565.
Tried aggregator 1 time.
Reduced MIP has 501001 rows, 500501 columns, and 1500500 nonzeros.
Reduced MIP has 500 binaries, 0 generals, 0 SOSs, and 0 indicators.
Presolve time = 0.46 sec. (400.65 ticks)
Probing time = 0.06 sec. (62.52 ticks)
Tried aggregator 1 time.
Reduced MIP has 501001 rows, 500501 columns, and 1500500 nonzeros.
Reduced MIP has 500 binaries, 0 generals, 0 SOSs, and 0 indicators.
Presolve time = 0.45 sec. (392.53 ticks)
Probing time = 0.06 sec. (62.52 ticks)
MIP emphasis: balance optimality and feasibility.
MIP search method: dynamic search.
Parallel mode: none, using 1 thread.
Root relaxation solution time = 0.17 sec. (193.05 ticks)

        Nodes                                         Cuts/
   Node  Left     Objective  IInf  Best Integer    Best Bound    ItCnt     Gap

*     0+    0                         4413.8565     5432.0000            23.07%
      0     0     4495.0987    16     4413.8565     5432.0000        0   23.07%
      0     0     4431.3066    44     4413.8565      Fract: 4       18    0.40%
      0     0     4431.3039    48     4413.8565      Fract: 5      109    0.40%
      0     2     4431.3039    48     4413.8565     4431.3039      109    0.40%
Elapsed time = 126.56 sec. (102471.49 ticks, tree = 0.01 MB, solutions = 1)
      1     3     4429.6903    62     4413.8565     4431.3035     5526    0.40%
      2     4     4429.5002    60     4413.8565     4429.6903     8652    0.36%
      3     5     4429.6531    64     4413.8565     4429.6889     9024    0.36%
      4     6     4429.5549    56     4413.8565     4429.6531     9323    0.36%
      5     7     4429.5351    48     4413.8565     4429.6531     9698    0.36%
      6     8     4429.4975    49     4413.8565     4429.6531    10958    0.36%
      7     9     4429.4329    29     4413.8565     4429.6531    18361    0.36%
      8    10     4429.4031    36     4413.8565     4429.6531    19635    0.36%
      9    11     4429.4208    24     4413.8565     4429.6531    21048    0.36%
*    10+   10                         4429.2329     4429.6531             0.01%
     10    12     4429.4010    12     4429.2329     4429.6531    21257    0.01%
Elapsed time = 383.39 sec. (235269.96 ticks, tree = 5.62 MB, solutions = 2)
     11    13     4429.3782     4     4429.2329     4429.6531    21392    0.01%
     12    14     4429.3459    17     4429.2329     4429.6531    24039    0.01%
     13    15     4429.2568    12     4429.2329     4429.6531    24346    0.01%
     15    13        cutoff           4429.2329     4429.6531    24460    0.01%
     16    14     4429.6515    37     4429.2329     4429.6531    24672    0.01%
     17    15     4429.5216    40     4429.2329     4429.6531    25499    0.01%
     18    16     4429.5776    35     4429.2329     4429.6531    26162    0.01%
     19    17     4429.5574    21     4429.2329     4429.6531    26535    0.01%
*    20+   14                         4429.3776     4429.6531             0.01%
     20    16     4429.5121    38     4429.3776     4429.6531    26989    0.01%
     21    17     4429.5271    11     4429.3776     4429.6531    27411    0.01%
Elapsed time = 532.28 sec. (309006.27 ticks, tree = 6.52 MB, solutions = 3)
     22    18     4429.4692    17     4429.3776     4429.6531    27739    0.01%
     23    19     4429.4905    22     4429.3776     4429.6531    28251    0.01%
     24    20     4429.3877    22     4429.3776     4429.6531    29668    0.01%
     25    21     4429.4144    14     4429.3776     4429.6531    29996    0.01%
     26    22     4429.3845    18     4429.3776     4429.6531    30132    0.01%
     27    21        cutoff           4429.3776     4429.6531    30210    0.01%
     28    20        cutoff           4429.3776     4429.6531    30269    0.01%
     30    20     4429.6443    58     4429.3776     4429.6434    30439    0.01%
     31    21     4429.5827    54     4429.3776     4429.6434    30610    0.01%
     32    22     4429.5515    48     4429.3776     4429.6434    30853    0.01%
Elapsed time = 669.93 sec. (366515.99 ticks, tree = 11.24 MB, solutions = 3)
     33    23     4429.5287    47     4429.3776     4429.6434    31055    0.01%
     34    24     4429.4917    53     4429.3776     4429.6434    31199    0.01%
     35    25     4429.4162    10     4429.3776     4429.6434    31433    0.01%
     36    26     4429.3862    47     4429.3776     4429.6434    31875    0.01%
     38    24        cutoff           4429.3776     4429.6434    31974    0.01%
     39    25     4429.5041    55     4429.3776     4429.5816    32291    0.00%
     40    26     4429.3992    33     4429.3776     4429.5816    33501    0.00%
     43    25     4429.5194    30     4429.3776     4429.5776    33900    0.00%
     44    26     4429.5043    14     4429.3776     4429.5776    34001    0.00%
     45    27     4429.4853     6     4429.3776     4429.5776    34225    0.00%
Elapsed time = 778.90 sec. (416838.66 ticks, tree = 8.31 MB, solutions = 3)
     46    28     4429.4691    18     4429.3776     4429.5776    41130    0.00%
     47    29     4429.4610     4     4429.3776     4429.5776    45086    0.00%
     48    30     4429.4331     6     4429.3776     4429.5776    52427    0.00%
     50    32     4429.3794    14     4429.3776     4429.5776    52917    0.00%
     54    32     4429.5027    33     4429.3776     4429.5523    53480    0.00%
     55    33     4429.4431     8     4429.3776     4429.5523    53796    0.00%
     56    34     4429.4309    17     4429.3776     4429.5523    54230    0.00%
     57    35     4429.4138     5     4429.3776     4429.5523    54600    0.00%
     58    34        cutoff           4429.3776     4429.5523    54951    0.00%
     59    33        cutoff           4429.3776     4429.5523    55132    0.00%
Elapsed time = 900.10 sec. (472056.18 ticks, tree = 5.74 MB, solutions = 3)
     60    34     4429.5025    51     4429.3776     4429.5514    55179    0.00%
     61    35     4429.4163    52     4429.3776     4429.5514    55296    0.00%
     62    36     4429.3860    34     4429.3776     4429.5514    55688    0.00%
     64    34        cutoff           4429.3776     4429.5514    55756    0.00%
     65    35     4429.5402    45     4429.3776     4429.5402    55983    0.00%
     66    36     4429.5015    43     4429.3776     4429.5397    56775    0.00%
     67    37     4429.4983     8     4429.3776     4429.5397    57093    0.00%
     69    39     4429.4980     2     4429.3776     4429.5397    57171    0.00%
*    70+   17                         4429.4971     4429.5397             0.00%
     70    19     4429.4976     4     4429.4971     4429.5397    57311    0.00%
     71    19     4429.4972     8     4429.4971     4429.5397    57428    0.00%
Elapsed time = 999.12 sec. (502330.50 ticks, tree = 7.06 MB, solutions = 4)
     73    17        cutoff           4429.4971     4429.5242    57589    0.00%
     74    18     4429.5074    10     4429.4971     4429.5214    57758    0.00%
     76    16        cutoff           4429.4971     4429.5214    57835    0.00%
     79    13        cutoff           4429.4971     4429.5121    57956    0.00%
     81    11        cutoff           4429.4971     4429.5041    58055    0.00%
     84     8        cutoff           4429.4971     4429.5003    58094    0.00%
     87     5        cutoff           4429.4971     4429.5001    58135    0.00%
     91     1        cutoff           4429.4971     4429.4976    58153    0.00%

Gomory fractional cuts applied:  2
User cuts applied:  6

Root node processing (before b&c):
  Real time             =  126.52 sec. (102433.64 ticks)
Sequential b&c:
  Real time             =  889.09 sec. (410399.25 ticks)
                          ------------
Total (root+branch&cut) = 1015.61 sec. (512832.88 ticks)
@Parameters: 
is_S_cut                                true
is_add_all_yinF                         true
is_start_value                          true
is_usercut                              true
is_visualization                        false
uc_only_rootnode                        false

data                                    Qi
fn                                      data/Qi/instance_1000_500.csv
mode                                    ZLP
solver                                  cplex

p                                       50
r                                       2

EPS                                     1.0e-06
EPS_vio                                 1.0e-04
beta                                    0.10
gap                                     0.00
nodelimit                               Inf
timelimit                               7200.00


@PrintInfos
ItCnt: 58156
Current gap: 0.00 %
Termination Status: OPTIMAL
Primal Status: FEASIBLE_POINT
Solve Time: 1015.61 sec
Objective Value: 4429.497056
Number of Nodes:     93

CutInfo: [phase] num / time (sec) 
ZLP             [phase1]     0 / 0.00 [rLC]     3 / 11.14 [rUC]     4 / 9.08 [sLC]     0 / 7.19 [sUC]     5 / 331.44 
OldSubmodular   [phase1]     0 / 0.00 [rLC]     0 / 0.00 [rUC]     0 / 0.00 [sLC]     0 / 0.00 [sUC]     0 / 0.00 
NewSubmodular   [phase1]     0 / 0.00 [rLC]     0 / 0.00 [rUC]     0 / 0.00 [sLC]     0 / 0.00 [sUC]     0 / 0.00 
PMP             [phase1]     0 / 0.00 [rLC]     4 / 7.45 [rUC]     4 / 6.22 [sLC]     3 / 6.20 [sUC]   119 / 274.33 
Separation Round: [phase1] 0  [rLC] 4  [rUC] 4  [sLC] 3  [sUC] 119
Root Best Bound 4429.690323
Root Best Integer: 4413.856502
Best Bound: 4429.497056
Best Integer: 4429.497056

